&CONTROL
   tstress          = .true.
   tprnfor          = .true.
/
&SYSTEM
   ntyp             = 2
   nat              = 2
   ibrav            = 0
/
&ELECTRONS
/
&IONS
/
&CELL
/

ATOMIC_SPECIES
Na 22.98976928 Na.pbe-spnl-rrkjus_psl.1.0.0.UPF
Cl 35.45 Cl.pbe-n-rrkjus_psl.1.0.0.UPF

K_POINTS automatic
3 3 3  0 0 0

CELL_PARAMETERS angstrom
0.00000000000000 2.84179793917749 2.84179793917749
2.84179793917749 0.00000000000000 2.84179793917749
2.84179793917749 2.84179793917749 0.00000000000000

ATOMIC_POSITIONS angstrom
Na 0.0000000000 0.0000000000 0.0000000000 
Cl 2.8417979392 0.0000000000 0.0000000000 

