&CONTROL
   calculation      = 'vc-relax'
   outdir           = './Si'
   prefix           = 'Si'
   etot_conv_thr    = 1e-05
   forc_conv_thr    = 0.0001
   pseudo_dir       = '/Users/matt/QE/SSSP_precision_pseudos/'
/
&SYSTEM
   ibrav            = 2
   ecutwfc          = 30.0
   ntyp             = 1
   nat              = 2
   celldm(1)        = 14.000000058476058
/
&ELECTRONS
   conv_thr         = 1e-07
/
&IONS
/
&CELL
   cell_dofree      = 'ibrav'
/

ATOMIC_SPECIES
Si 28.085 Si.pbe-n-rrkjus_psl.1.0.0.UPF

K_POINTS automatic
4 4 4  0 0 0

ATOMIC_POSITIONS angstrom
Si 0.0000000000 0.0000000000 0.0000000000 
Si 1.8521202370 1.8521202370 1.8521202370 

